p cnf 19 50
-3 -10 -8 0
17 -12 -2 0
-9 -18 -15 0
5 -1 -5 0
19 -15 -6 0
-4 -11 -19 0
-12 8 -2 0
-14 -1 1 0
14 7 -6 0
4 -1 1 0
12 -18 -17 0
4 9 4 0
1 2 3 4 5 6 7 8 9 10 11 12 13 14 15 16 17 18 19 0
5 3 -5 0
1 5 -17 0
-6 6 2 0
15 8 -15 0
14 9 -15 0
16 3 4 0
-11 -1 -4 0
2 1 7 0
11 -2 -6 0
-6 16 5 0
2 7 -9 0
8 14 4 0
-2 4 -17 0
-18 9 13 0
10 13 -12 0
-5 -11 -4 0
4 -2 -9 0
10 8 1 0
7 8 -1 0
18 17 -5 0
-10 -19 -9 0
3 -2 -15 0
-2 2 -3 0
6 -15 -17 0
11 19 -1 0
1 16 -13 0
-14 3 8 0
-14 3 -9 0
-13 5 -6 0
8 -15 -1 0
16 13 2 0
-5 -14 4 0
-1 -2 -3 -4 -5 -6 -7 -8 -9 -10 -11 -12 -13 -14 -15 -16 -17 -18 -19 0
-13 -15 -6 0
-5 4 -10 0
-15 15 -19 0
-3 -17 6 0
